NAME : X-n284-k15
COMMENT : "Generated by Uchoa, Pecin, Pessoa, Poggi, Subramanian, and Vidal (2013)"
TYPE : CVRP
DIMENSION : 284
EDGE_WEIGHT_TYPE : EUC_2D
CAPACITY : 109
NODE_COORD_SECTION
1 674 825
2 549 534
3 43 315
4 542 420
5 45 580
6 180 450
7 369 618
8 287 721
9 36 426
10 411 408
11 170 446
12 21 333
13 37 428
14 617 456
15 52 527
16 114 227
17 32 303
18 233 638
19 314 568
20 290 736
21 549 449
22 317 699
23 676 992
24 45 851
25 455 508
26 128 446
27 34 302
28 152 660
29 550 576
30 559 585
31 306 655
32 183 449
33 380 586
34 726 399
35 21 277
36 306 679
37 128 317
38 547 726
39 242 389
40 347 595
41 324 384
42 531 492
43 103 480
44 197 495
45 20 321
46 66 402
47 100 638
48 453 582
49 120 514
50 691 499
51 311 449
52 350 574
53 198 437
54 370 722
55 513 438
56 273 645
57 6 508
58 44 581
59 309 763
60 18 616
61 128 603
62 543 466
63 687 466
64 625 525
65 54 449
66 504 517
67 592 375
68 49 401
69 638 459
70 329 614
71 657 416
72 1 296
73 217 443
74 42 721
75 1 416
76 157 731
77 244 727
78 128 320
79 548 588
80 559 438
81 425 920
82 17 481
83 130 376
84 459 433
85 9 408
86 364 507
87 55 295
88 357 711
89 168 292
90 31 407
91 544 414
92 285 801
93 439 387
94 751 638
95 66 345
96 347 636
97 413 579
98 353 713
99 686 492
100 192 450
101 535 479
102 658 301
103 428 346
104 18 359
105 364 653
106 293 515
107 326 459
108 60 370
109 252 426
110 532 411
111 225 722
112 259 227
113 19 558
114 368 573
115 382 645
116 84 434
117 596 630
118 27 367
119 186 460
120 116 629
121 177 576
122 89 544
123 574 623
124 841 288
125 166 458
126 541 481
127 255 545
128 38 273
129 672 313
130 264 757
131 59 278
132 351 298
133 26 447
134 334 620
135 21 527
136 268 402
137 547 547
138 54 551
139 530 414
140 53 441
141 103 273
142 181 327
143 163 342
144 141 256
145 619 383
146 502 494
147 324 558
148 121 518
149 116 307
150 262 511
151 592 418
152 85 355
153 442 622
154 307 581
155 344 619
156 509 653
157 140 436
158 603 511
159 155 633
160 83 545
161 389 638
162 231 732
163 141 362
164 36 435
165 499 331
166 605 327
167 217 375
168 50 491
169 487 555
170 625 355
171 415 599
172 314 840
173 589 589
174 199 463
175 683 488
176 55 501
177 30 368
178 308 729
179 609 370
180 97 678
181 69 439
182 208 380
183 85 478
184 96 618
185 39 321
186 47 409
187 541 489
188 76 376
189 469 638
190 501 458
191 51 527
192 428 484
193 197 390
194 279 744
195 181 319
196 39 640
197 70 417
198 320 800
199 88 326
200 448 624
201 5 405
202 9 520
203 26 200
204 432 556
205 405 541
206 242 429
207 501 579
208 479 427
209 27 571
210 602 440
211 398 657
212 176 482
213 517 509
214 184 464
215 350 606
216 45 407
217 52 465
218 612 434
219 318 979
220 226 642
221 544 431
222 607 574
223 130 767
224 204 742
225 518 464
226 439 619
227 104 463
228 584 495
229 183 642
230 747 478
231 528 588
232 37 256
233 113 395
234 189 421
235 537 541
236 554 484
237 395 514
238 31 647
239 63 473
240 636 432
241 337 505
242 678 518
243 396 435
244 603 501
245 173 629
246 575 395
247 309 604
248 371 795
249 262 452
250 29 521
251 375 623
252 525 449
253 482 542
254 589 420
255 86 340
256 22 705
257 343 673
258 45 558
259 530 483
260 528 389
261 299 678
262 486 326
263 414 536
264 673 15
265 56 354
266 13 456
267 615 505
268 155 392
269 17 342
270 505 333
271 264 387
272 289 541
273 140 498
274 445 606
275 534 468
276 112 456
277 604 604
278 304 614
279 228 659
280 339 622
281 513 411
282 290 422
283 728 457
284 379 594
PICKUP_AND_DELIVERY_SECTION
1 0 0 1000000000 0 0 0
2 0 0 1000000000 0 0 7
3 0 0 1000000000 0 0 3
4 0 0 1000000000 0 0 3
5 0 0 1000000000 0 0 5
6 0 0 1000000000 0 0 4
7 0 0 1000000000 0 0 8
8 0 0 1000000000 0 0 1
9 0 0 1000000000 0 0 2
10 0 0 1000000000 0 0 9
11 0 0 1000000000 0 5 0
12 0 0 1000000000 0 0 2
13 0 0 1000000000 0 0 2
14 0 0 1000000000 0 0 4
15 0 0 1000000000 0 0 1
16 0 0 1000000000 0 0 3
17 0 0 1000000000 0 0 4
18 0 0 1000000000 0 0 10
19 0 0 1000000000 0 0 2
20 0 0 1000000000 0 0 2
21 0 0 1000000000 0 3 0
22 0 0 1000000000 0 0 9
23 0 0 1000000000 0 0 2
24 0 0 1000000000 0 0 1
25 0 0 1000000000 0 0 6
26 0 0 1000000000 0 0 8
27 0 0 1000000000 0 0 9
28 0 0 1000000000 0 0 7
29 0 0 1000000000 0 0 8
30 0 0 1000000000 0 0 8
31 0 0 1000000000 0 4 0
32 0 0 1000000000 0 0 6
33 0 0 1000000000 0 0 2
34 0 0 1000000000 0 0 7
35 0 0 1000000000 0 0 5
36 0 0 1000000000 0 0 10
37 0 0 1000000000 0 0 4
38 0 0 1000000000 0 0 9
39 0 0 1000000000 0 0 6
40 0 0 1000000000 0 0 8
41 0 0 1000000000 0 1 0
42 0 0 1000000000 0 0 5
43 0 0 1000000000 0 0 5
44 0 0 1000000000 0 0 8
45 0 0 1000000000 0 0 5
46 0 0 1000000000 0 0 5
47 0 0 1000000000 0 0 4
48 0 0 1000000000 0 0 8
49 0 0 1000000000 0 0 3
50 0 0 1000000000 0 0 6
51 0 0 1000000000 0 7 0
52 0 0 1000000000 0 0 7
53 0 0 1000000000 0 0 9
54 0 0 1000000000 0 0 9
55 0 0 1000000000 0 0 5
56 0 0 1000000000 0 0 4
57 0 0 1000000000 0 0 3
58 0 0 1000000000 0 0 9
59 0 0 1000000000 0 0 3
60 0 0 1000000000 0 0 7
61 0 0 1000000000 0 9 0
62 0 0 1000000000 0 0 1
63 0 0 1000000000 0 0 6
64 0 0 1000000000 0 0 2
65 0 0 1000000000 0 0 8
66 0 0 1000000000 0 0 9
67 0 0 1000000000 0 0 2
68 0 0 1000000000 0 0 6
69 0 0 1000000000 0 0 7
70 0 0 1000000000 0 0 7
71 0 0 1000000000 0 7 0
72 0 0 1000000000 0 0 10
73 0 0 1000000000 0 0 10
74 0 0 1000000000 0 0 5
75 0 0 1000000000 0 0 5
76 0 0 1000000000 0 0 8
77 0 0 1000000000 0 0 7
78 0 0 1000000000 0 0 3
79 0 0 1000000000 0 0 2
80 0 0 1000000000 0 0 3
81 0 0 1000000000 0 3 0
82 0 0 1000000000 0 0 1
83 0 0 1000000000 0 0 9
84 0 0 1000000000 0 0 4
85 0 0 1000000000 0 0 2
86 0 0 1000000000 0 0 1
87 0 0 1000000000 0 0 5
88 0 0 1000000000 0 0 5
89 0 0 1000000000 0 0 5
90 0 0 1000000000 0 0 6
91 0 0 1000000000 0 4 0
92 0 0 1000000000 0 0 8
93 0 0 1000000000 0 0 9
94 0 0 1000000000 0 0 2
95 0 0 1000000000 0 0 2
96 0 0 1000000000 0 0 8
97 0 0 1000000000 0 0 5
98 0 0 1000000000 0 0 6
99 0 0 1000000000 0 0 8
100 0 0 1000000000 0 0 7
101 0 0 1000000000 0 10 0
102 0 0 1000000000 0 0 5
103 0 0 1000000000 0 0 1
104 0 0 1000000000 0 0 6
105 0 0 1000000000 0 0 1
106 0 0 1000000000 0 0 1
107 0 0 1000000000 0 0 9
108 0 0 1000000000 0 0 7
109 0 0 1000000000 0 0 6
110 0 0 1000000000 0 0 3
111 0 0 1000000000 0 4 0
112 0 0 1000000000 0 0 7
113 0 0 1000000000 0 0 7
114 0 0 1000000000 0 0 6
115 0 0 1000000000 0 0 3
116 0 0 1000000000 0 0 6
117 0 0 1000000000 0 0 10
118 0 0 1000000000 0 0 2
119 0 0 1000000000 0 0 3
120 0 0 1000000000 0 0 4
121 0 0 1000000000 0 5 0
122 0 0 1000000000 0 0 9
123 0 0 1000000000 0 0 8
124 0 0 1000000000 0 0 5
125 0 0 1000000000 0 0 3
126 0 0 1000000000 0 0 10
127 0 0 1000000000 0 0 2
128 0 0 1000000000 0 0 3
129 0 0 1000000000 0 0 9
130 0 0 1000000000 0 0 9
131 0 0 1000000000 0 9 0
132 0 0 1000000000 0 0 5
133 0 0 1000000000 0 0 2
134 0 0 1000000000 0 0 9
135 0 0 1000000000 0 0 9
136 0 0 1000000000 0 0 4
137 0 0 1000000000 0 0 7
138 0 0 1000000000 0 0 5
139 0 0 1000000000 0 0 3
140 0 0 1000000000 0 0 8
141 0 0 1000000000 0 9 0
142 0 0 1000000000 0 0 3
143 0 0 1000000000 0 0 1
144 0 0 1000000000 0 0 10
145 0 0 1000000000 0 0 8
146 0 0 1000000000 0 0 2
147 0 0 1000000000 0 0 5
148 0 0 1000000000 0 0 9
149 0 0 1000000000 0 0 10
150 0 0 1000000000 0 0 6
151 0 0 1000000000 0 10 0
152 0 0 1000000000 0 0 10
153 0 0 1000000000 0 0 7
154 0 0 1000000000 0 0 1
155 0 0 1000000000 0 0 9
156 0 0 1000000000 0 0 2
157 0 0 1000000000 0 0 1
158 0 0 1000000000 0 0 1
159 0 0 1000000000 0 0 8
160 0 0 1000000000 0 0 6
161 0 0 1000000000 0 1 0
162 0 0 1000000000 0 0 10
163 0 0 1000000000 0 0 10
164 0 0 1000000000 0 0 5
165 0 0 1000000000 0 0 10
166 0 0 1000000000 0 0 6
167 0 0 1000000000 0 0 10
168 0 0 1000000000 0 0 3
169 0 0 1000000000 0 0 1
170 0 0 1000000000 0 0 7
171 0 0 1000000000 0 3 0
172 0 0 1000000000 0 0 7
173 0 0 1000000000 0 0 4
174 0 0 1000000000 0 0 8
175 0 0 1000000000 0 0 3
176 0 0 1000000000 0 0 1
177 0 0 1000000000 0 0 9
178 0 0 1000000000 0 0 2
179 0 0 1000000000 0 0 9
180 0 0 1000000000 0 0 5
181 0 0 1000000000 0 1 0
182 0 0 1000000000 0 0 2
183 0 0 1000000000 0 0 5
184 0 0 1000000000 0 0 3
185 0 0 1000000000 0 0 3
186 0 0 1000000000 0 0 3
187 0 0 1000000000 0 0 3
188 0 0 1000000000 0 0 3
189 0 0 1000000000 0 0 10
190 0 0 1000000000 0 0 10
191 0 0 1000000000 0 9 0
192 0 0 1000000000 0 0 7
193 0 0 1000000000 0 0 4
194 0 0 1000000000 0 0 9
195 0 0 1000000000 0 0 7
196 0 0 1000000000 0 0 1
197 0 0 1000000000 0 0 3
198 0 0 1000000000 0 0 3
199 0 0 1000000000 0 0 5
200 0 0 1000000000 0 0 3
201 0 0 1000000000 0 5 0
202 0 0 1000000000 0 0 1
203 0 0 1000000000 0 0 3
204 0 0 1000000000 0 0 6
205 0 0 1000000000 0 0 9
206 0 0 1000000000 0 0 6
207 0 0 1000000000 0 0 10
208 0 0 1000000000 0 0 8
209 0 0 1000000000 0 0 2
210 0 0 1000000000 0 0 6
211 0 0 1000000000 0 2 0
212 0 0 1000000000 0 0 10
213 0 0 1000000000 0 0 10
214 0 0 1000000000 0 0 6
215 0 0 1000000000 0 0 10
216 0 0 1000000000 0 0 10
217 0 0 1000000000 0 0 7
218 0 0 1000000000 0 0 6
219 0 0 1000000000 0 0 6
220 0 0 1000000000 0 0 1
221 0 0 1000000000 0 8 0
222 0 0 1000000000 0 0 6
223 0 0 1000000000 0 0 5
224 0 0 1000000000 0 0 3
225 0 0 1000000000 0 0 1
226 0 0 1000000000 0 0 9
227 0 0 1000000000 0 0 4
228 0 0 1000000000 0 0 8
229 0 0 1000000000 0 0 8
230 0 0 1000000000 0 0 5
231 0 0 1000000000 0 4 0
232 0 0 1000000000 0 0 3
233 0 0 1000000000 0 0 3
234 0 0 1000000000 0 0 6
235 0 0 1000000000 0 0 9
236 0 0 1000000000 0 0 10
237 0 0 1000000000 0 0 2
238 0 0 1000000000 0 0 3
239 0 0 1000000000 0 0 3
240 0 0 1000000000 0 0 1
241 0 0 1000000000 0 1 0
242 0 0 1000000000 0 0 7
243 0 0 1000000000 0 0 8
244 0 0 1000000000 0 0 6
245 0 0 1000000000 0 0 5
246 0 0 1000000000 0 0 5
247 0 0 1000000000 0 0 4
248 0 0 1000000000 0 0 2
249 0 0 1000000000 0 0 10
250 0 0 1000000000 0 0 2
251 0 0 1000000000 0 1 0
252 0 0 1000000000 0 0 2
253 0 0 1000000000 0 0 3
254 0 0 1000000000 0 0 3
255 0 0 1000000000 0 0 6
256 0 0 1000000000 0 0 5
257 0 0 1000000000 0 0 5
258 0 0 1000000000 0 0 1
259 0 0 1000000000 0 0 8
260 0 0 1000000000 0 0 8
261 0 0 1000000000 0 3 0
262 0 0 1000000000 0 0 1
263 0 0 1000000000 0 0 8
264 0 0 1000000000 0 0 1
265 0 0 1000000000 0 0 7
266 0 0 1000000000 0 0 6
267 0 0 1000000000 0 0 6
268 0 0 1000000000 0 0 3
269 0 0 1000000000 0 0 10
270 0 0 1000000000 0 0 5
271 0 0 1000000000 0 1 0
272 0 0 1000000000 0 0 9
273 0 0 1000000000 0 0 8
274 0 0 1000000000 0 0 5
275 0 0 1000000000 0 0 2
276 0 0 1000000000 0 0 9
277 0 0 1000000000 0 0 4
278 0 0 1000000000 0 0 4
279 0 0 1000000000 0 0 8
280 0 0 1000000000 0 0 7
281 0 0 1000000000 0 6 0
282 0 0 1000000000 0 0 3
283 0 0 1000000000 0 0 6
284 0 0 1000000000 0 0 8
